benchmarks/bfuzz0/32204262230902307051206630216942118054.smt2
(set-logic QF_FP)
(declare-const x0 (_ FloatingPoint 11 53))
(declare-const x1 (_ FloatingPoint 11 53))
(declare-const x2 (_ FloatingPoint 11 53))
(declare-const x3 (_ FloatingPoint 11 53))
(declare-const x4 (_ FloatingPoint 11 53))
(declare-const x5 (_ FloatingPoint 11 53))
(declare-const x6 (_ FloatingPoint 11 53))
(declare-const x7 (_ FloatingPoint 11 53))
(declare-const x8 (_ FloatingPoint 11 53))
(declare-const x9 (_ FloatingPoint 11 53))
(declare-const x10 (_ FloatingPoint 11 53))
(declare-const x11 (_ FloatingPoint 11 53))
(declare-const x12 (_ FloatingPoint 11 53))
(declare-const x13 (_ FloatingPoint 11 53))
(declare-const x14 (_ FloatingPoint 11 53))
(declare-const x15 (_ FloatingPoint 11 53))
(declare-const x16 (_ FloatingPoint 11 53))
(declare-const x17 (_ FloatingPoint 11 53))
(declare-const x18 (_ FloatingPoint 11 53))
(declare-const x19 (_ FloatingPoint 11 53))
(declare-const x20 (_ FloatingPoint 11 53))
(declare-const x21 (_ FloatingPoint 11 53))
(declare-const x22 (_ FloatingPoint 11 53))
(declare-const x23 (_ FloatingPoint 11 53))
(declare-const x24 (_ FloatingPoint 11 53))
(declare-const x25 (_ FloatingPoint 11 53))
(declare-const x26 (_ FloatingPoint 11 53))
(declare-const x27 (_ FloatingPoint 11 53))
(assert (fp.gt (fp.add RNE x15 x18) (fp.div RNE x15 x14)))
(assert (fp.leq (fp.mul RNE x4 x8) (fp.sub RNE x20 x11)))
(assert (fp.lt (fp.neg x15) (fp.mul RNE x27 x26)))
(assert (fp.geq (fp.mul RNE x21 x17) (fp.sub RNE x0 x9)))
(assert (fp.gt (fp.sub RNE x25 x11) (fp.neg x12)))
(check-sat)
