db/data/32204262230902307051206630216942118054.z3.out
sat
-------------------
1336.875621843
